c File: flat50_3_0.col
c
c SOURCE: Joseph Culberson (joe@cs.ualberta.ca)
c DESCRIPTION: Quasi-random coloring problem
c              generated with flatness = 0
c                             probability = 0.139
c                             known coloring = 3
c                             random seed = 1536
c              Creation Date:  Tue Jun  9 12:11:42 1998
c Maximum degree = 8 Minimum degree = 1
c p edge 50 115
c cnf created by edge2cnf
p cnf 150 545
-1 -2 0
-1 -3 0
-2 -3 0
1 2 3 0
-4 -5 0
-4 -6 0
-5 -6 0
4 5 6 0
-7 -8 0
-7 -9 0
-8 -9 0
7 8 9 0
-10 -11 0
-10 -12 0
-11 -12 0
10 11 12 0
-13 -14 0
-13 -15 0
-14 -15 0
13 14 15 0
-16 -17 0
-16 -18 0
-17 -18 0
16 17 18 0
-19 -20 0
-19 -21 0
-20 -21 0
19 20 21 0
-22 -23 0
-22 -24 0
-23 -24 0
22 23 24 0
-25 -26 0
-25 -27 0
-26 -27 0
25 26 27 0
-28 -29 0
-28 -30 0
-29 -30 0
28 29 30 0
-31 -32 0
-31 -33 0
-32 -33 0
31 32 33 0
-34 -35 0
-34 -36 0
-35 -36 0
34 35 36 0
-37 -38 0
-37 -39 0
-38 -39 0
37 38 39 0
-40 -41 0
-40 -42 0
-41 -42 0
40 41 42 0
-43 -44 0
-43 -45 0
-44 -45 0
43 44 45 0
-46 -47 0
-46 -48 0
-47 -48 0
46 47 48 0
-49 -50 0
-49 -51 0
-50 -51 0
49 50 51 0
-52 -53 0
-52 -54 0
-53 -54 0
52 53 54 0
-55 -56 0
-55 -57 0
-56 -57 0
55 56 57 0
-58 -59 0
-58 -60 0
-59 -60 0
58 59 60 0
-61 -62 0
-61 -63 0
-62 -63 0
61 62 63 0
-64 -65 0
-64 -66 0
-65 -66 0
64 65 66 0
-67 -68 0
-67 -69 0
-68 -69 0
67 68 69 0
-70 -71 0
-70 -72 0
-71 -72 0
70 71 72 0
-73 -74 0
-73 -75 0
-74 -75 0
73 74 75 0
-76 -77 0
-76 -78 0
-77 -78 0
76 77 78 0
-79 -80 0
-79 -81 0
-80 -81 0
79 80 81 0
-82 -83 0
-82 -84 0
-83 -84 0
82 83 84 0
-85 -86 0
-85 -87 0
-86 -87 0
85 86 87 0
-88 -89 0
-88 -90 0
-89 -90 0
88 89 90 0
-91 -92 0
-91 -93 0
-92 -93 0
91 92 93 0
-94 -95 0
-94 -96 0
-95 -96 0
94 95 96 0
-97 -98 0
-97 -99 0
-98 -99 0
97 98 99 0
-100 -101 0
-100 -102 0
-101 -102 0
100 101 102 0
-103 -104 0
-103 -105 0
-104 -105 0
103 104 105 0
-106 -107 0
-106 -108 0
-107 -108 0
106 107 108 0
-109 -110 0
-109 -111 0
-110 -111 0
109 110 111 0
-112 -113 0
-112 -114 0
-113 -114 0
112 113 114 0
-115 -116 0
-115 -117 0
-116 -117 0
115 116 117 0
-118 -119 0
-118 -120 0
-119 -120 0
118 119 120 0
-121 -122 0
-121 -123 0
-122 -123 0
121 122 123 0
-124 -125 0
-124 -126 0
-125 -126 0
124 125 126 0
-127 -128 0
-127 -129 0
-128 -129 0
127 128 129 0
-130 -131 0
-130 -132 0
-131 -132 0
130 131 132 0
-133 -134 0
-133 -135 0
-134 -135 0
133 134 135 0
-136 -137 0
-136 -138 0
-137 -138 0
136 137 138 0
-139 -140 0
-139 -141 0
-140 -141 0
139 140 141 0
-142 -143 0
-142 -144 0
-143 -144 0
142 143 144 0
-145 -146 0
-145 -147 0
-146 -147 0
145 146 147 0
-148 -149 0
-148 -150 0
-149 -150 0
148 149 150 0
-52 -1 0
-53 -2 0
-54 -3 0
-79 -1 0
-80 -2 0
-81 -3 0
-112 -1 0
-113 -2 0
-114 -3 0
-121 -1 0
-122 -2 0
-123 -3 0
-124 -1 0
-125 -2 0
-126 -3 0
-148 -1 0
-149 -2 0
-150 -3 0
-79 -4 0
-80 -5 0
-81 -6 0
-85 -4 0
-86 -5 0
-87 -6 0
-88 -4 0
-89 -5 0
-90 -6 0
-100 -4 0
-101 -5 0
-102 -6 0
-139 -4 0
-140 -5 0
-141 -6 0
-106 -7 0
-107 -8 0
-108 -9 0
-145 -7 0
-146 -8 0
-147 -9 0
-73 -10 0
-74 -11 0
-75 -12 0
-100 -10 0
-101 -11 0
-102 -12 0
-118 -10 0
-119 -11 0
-120 -12 0
-133 -10 0
-134 -11 0
-135 -12 0
-58 -13 0
-59 -14 0
-60 -15 0
-70 -13 0
-71 -14 0
-72 -15 0
-91 -13 0
-92 -14 0
-93 -15 0
-94 -13 0
-95 -14 0
-96 -15 0
-109 -13 0
-110 -14 0
-111 -15 0
-112 -13 0
-113 -14 0
-114 -15 0
-139 -13 0
-140 -14 0
-141 -15 0
-61 -16 0
-62 -17 0
-63 -18 0
-121 -16 0
-122 -17 0
-123 -18 0
-127 -16 0
-128 -17 0
-129 -18 0
-73 -19 0
-74 -20 0
-75 -21 0
-91 -19 0
-92 -20 0
-93 -21 0
-64 -22 0
-65 -23 0
-66 -24 0
-70 -22 0
-71 -23 0
-72 -24 0
-79 -22 0
-80 -23 0
-81 -24 0
-85 -22 0
-86 -23 0
-87 -24 0
-106 -22 0
-107 -23 0
-108 -24 0
-115 -22 0
-116 -23 0
-117 -24 0
-127 -22 0
-128 -23 0
-129 -24 0
-136 -22 0
-137 -23 0
-138 -24 0
-76 -25 0
-77 -26 0
-78 -27 0
-88 -25 0
-89 -26 0
-90 -27 0
-124 -25 0
-125 -26 0
-126 -27 0
-148 -25 0
-149 -26 0
-150 -27 0
-64 -28 0
-65 -29 0
-66 -30 0
-70 -28 0
-71 -29 0
-72 -30 0
-94 -28 0
-95 -29 0
-96 -30 0
-97 -28 0
-98 -29 0
-99 -30 0
-124 -28 0
-125 -29 0
-126 -30 0
-55 -31 0
-56 -32 0
-57 -33 0
-91 -31 0
-92 -32 0
-93 -33 0
-94 -31 0
-95 -32 0
-96 -33 0
-97 -31 0
-98 -32 0
-99 -33 0
-103 -31 0
-104 -32 0
-105 -33 0
-55 -34 0
-56 -35 0
-57 -36 0
-103 -34 0
-104 -35 0
-105 -36 0
-109 -34 0
-110 -35 0
-111 -36 0
-61 -37 0
-62 -38 0
-63 -39 0
-82 -37 0
-83 -38 0
-84 -39 0
-109 -37 0
-110 -38 0
-111 -39 0
-142 -37 0
-143 -38 0
-144 -39 0
-73 -40 0
-74 -41 0
-75 -42 0
-91 -40 0
-92 -41 0
-93 -42 0
-94 -40 0
-95 -41 0
-96 -42 0
-106 -40 0
-107 -41 0
-108 -42 0
-118 -40 0
-119 -41 0
-120 -42 0
-136 -40 0
-137 -41 0
-138 -42 0
-145 -40 0
-146 -41 0
-147 -42 0
-58 -43 0
-59 -44 0
-60 -45 0
-64 -43 0
-65 -44 0
-66 -45 0
-124 -43 0
-125 -44 0
-126 -45 0
-136 -43 0
-137 -44 0
-138 -45 0
-73 -46 0
-74 -47 0
-75 -48 0
-118 -46 0
-119 -47 0
-120 -48 0
-121 -46 0
-122 -47 0
-123 -48 0
-136 -46 0
-137 -47 0
-138 -48 0
-148 -46 0
-149 -47 0
-150 -48 0
-55 -49 0
-56 -50 0
-57 -51 0
-61 -49 0
-62 -50 0
-63 -51 0
-106 -49 0
-107 -50 0
-108 -51 0
-121 -49 0
-122 -50 0
-123 -51 0
-130 -52 0
-131 -53 0
-132 -54 0
-139 -52 0
-140 -53 0
-141 -54 0
-103 -55 0
-104 -56 0
-105 -57 0
-112 -55 0
-113 -56 0
-114 -57 0
-130 -55 0
-131 -56 0
-132 -57 0
-139 -55 0
-140 -56 0
-141 -57 0
-124 -58 0
-125 -59 0
-126 -60 0
-136 -58 0
-137 -59 0
-138 -60 0
-139 -58 0
-140 -59 0
-141 -60 0
-148 -58 0
-149 -59 0
-150 -60 0
-103 -61 0
-104 -62 0
-105 -63 0
-106 -61 0
-107 -62 0
-108 -63 0
-145 -61 0
-146 -62 0
-147 -63 0
-142 -64 0
-143 -65 0
-144 -66 0
-145 -64 0
-146 -65 0
-147 -66 0
-103 -67 0
-104 -68 0
-105 -69 0
-106 -67 0
-107 -68 0
-108 -69 0
-109 -70 0
-110 -71 0
-111 -72 0
-139 -70 0
-140 -71 0
-141 -72 0
-103 -76 0
-104 -77 0
-105 -78 0
-109 -76 0
-110 -77 0
-111 -78 0
-136 -76 0
-137 -77 0
-138 -78 0
-127 -79 0
-128 -80 0
-129 -81 0
-133 -79 0
-134 -80 0
-135 -81 0
-121 -82 0
-122 -83 0
-123 -84 0
-136 -85 0
-137 -86 0
-138 -87 0
-145 -85 0
-146 -86 0
-147 -87 0
-109 -88 0
-110 -89 0
-111 -90 0
-124 -91 0
-125 -92 0
-126 -93 0
-148 -91 0
-149 -92 0
-150 -93 0
-106 -94 0
-107 -95 0
-108 -96 0
-112 -94 0
-113 -95 0
-114 -96 0
-124 -94 0
-125 -95 0
-126 -96 0
-118 -97 0
-119 -98 0
-120 -99 0
-106 -100 0
-107 -101 0
-108 -102 0
-127 -100 0
-128 -101 0
-129 -102 0
-142 -100 0
-143 -101 0
-144 -102 0
